p cnf 109 480
1 2 3 0
-1 -2 0
-1 -3 0
-2 -3 0
4 5 6 0
-4 -5 0
-4 -6 0
-5 -6 0
7 8 9 10 0
-7 -8 0
-7 -9 0
-7 -10 0
-8 -9 0
-8 -10 0
-9 -10 0
11 12 13 14 0
-11 -12 0
-11 -13 0
-11 -14 0
-12 -13 0
-12 -14 0
-13 -14 0
15 16 17 18 0
-15 -16 0
-15 -17 0
-15 -18 0
-16 -17 0
-16 -18 0
-17 -18 0
19 20 21 22 0
-19 -20 0
-19 -21 0
-19 -22 0
-20 -21 0
-20 -22 0
-21 -22 0
23 24 25 26 0
-23 -24 0
-23 -25 0
-23 -26 0
-24 -25 0
-24 -26 0
-25 -26 0
27 28 29 30 0
-27 -28 0
-27 -29 0
-27 -30 0
-28 -29 0
-28 -30 0
-29 -30 0
31 32 33 34 0
-31 -32 0
-31 -33 0
-31 -34 0
-32 -33 0
-32 -34 0
-33 -34 0
35 36 37 0
-35 -36 0
-35 -37 0
-36 -37 0
38 39 40 41 0
-38 -39 0
-38 -40 0
-38 -41 0
-39 -40 0
-39 -41 0
-40 -41 0
42 43 44 45 0
-42 -43 0
-42 -44 0
-42 -45 0
-43 -44 0
-43 -45 0
-44 -45 0
46 47 48 0
-46 -47 0
-46 -48 0
-47 -48 0
49 50 51 52 0
-49 -50 0
-49 -51 0
-49 -52 0
-50 -51 0
-50 -52 0
-51 -52 0
53 54 55 56 0
-53 -54 0
-53 -55 0
-53 -56 0
-54 -55 0
-54 -56 0
-55 -56 0
57 58 59 60 0
-57 -58 0
-57 -59 0
-57 -60 0
-58 -59 0
-58 -60 0
-59 -60 0
61 62 63 64 0
-61 -62 0
-61 -63 0
-61 -64 0
-62 -63 0
-62 -64 0
-63 -64 0
65 66 67 0
-65 -66 0
-65 -67 0
-66 -67 0
68 69 70 0
-68 -69 0
-68 -70 0
-69 -70 0
71 72 73 74 0
-71 -72 0
-71 -73 0
-71 -74 0
-72 -73 0
-72 -74 0
-73 -74 0
75 76 77 78 0
-75 -76 0
-75 -77 0
-75 -78 0
-76 -77 0
-76 -78 0
-77 -78 0
79 80 81 82 0
-79 -80 0
-79 -81 0
-79 -82 0
-80 -81 0
-80 -82 0
-81 -82 0
83 84 85 86 0
-83 -84 0
-83 -85 0
-83 -86 0
-84 -85 0
-84 -86 0
-85 -86 0
87 88 89 90 0
-87 -88 0
-87 -89 0
-87 -90 0
-88 -89 0
-88 -90 0
-89 -90 0
91 92 93 94 0
-91 -92 0
-91 -93 0
-91 -94 0
-92 -93 0
-92 -94 0
-93 -94 0
95 96 97 98 0
-95 -96 0
-95 -97 0
-95 -98 0
-96 -97 0
-96 -98 0
-97 -98 0
99 100 101 102 0
-99 -100 0
-99 -101 0
-99 -102 0
-100 -101 0
-100 -102 0
-101 -102 0
103 104 105 106 0
-103 -104 0
-103 -105 0
-103 -106 0
-104 -105 0
-104 -106 0
-105 -106 0
107 108 109 0
-107 -108 0
-107 -109 0
-108 -109 0
-1 -15 0
-2 -17 0
-3 -18 0
-1 -31 0
-2 -33 0
-3 -34 0
-1 -35 0
-3 -37 0
-1 -42 0
-2 -44 0
-3 -45 0
-2 -47 0
-3 -48 0
-1 -53 0
-2 -55 0
-3 -56 0
-1 -68 0
-2 -69 0
-3 -70 0
-4 -49 0
-5 -51 0
-6 -52 0
-4 -95 0
-5 -97 0
-6 -98 0
-7 -11 0
-8 -12 0
-9 -13 0
-10 -14 0
-7 -35 0
-8 -36 0
-10 -37 0
-7 -57 0
-8 -58 0
-9 -59 0
-10 -60 0
-7 -103 0
-8 -104 0
-9 -105 0
-10 -106 0
-11 -19 0
-12 -20 0
-13 -21 0
-14 -22 0
-11 -31 0
-12 -32 0
-13 -33 0
-14 -34 0
-11 -49 0
-12 -50 0
-13 -51 0
-14 -52 0
-11 -75 0
-12 -76 0
-13 -77 0
-14 -78 0
-11 -79 0
-12 -80 0
-13 -81 0
-14 -82 0
-11 -87 0
-12 -88 0
-13 -89 0
-14 -90 0
-11 -91 0
-12 -92 0
-13 -93 0
-14 -94 0
-15 -35 0
-16 -36 0
-18 -37 0
-15 -42 0
-16 -43 0
-17 -44 0
-18 -45 0
-15 -57 0
-16 -58 0
-17 -59 0
-18 -60 0
-15 -83 0
-16 -84 0
-17 -85 0
-18 -86 0
-15 -91 0
-16 -92 0
-17 -93 0
-18 -94 0
-15 -103 0
-16 -104 0
-17 -105 0
-18 -106 0
-19 -38 0
-20 -39 0
-21 -40 0
-22 -41 0
-20 -46 0
-21 -47 0
-22 -48 0
-19 -53 0
-20 -54 0
-21 -55 0
-22 -56 0
-19 -61 0
-20 -62 0
-21 -63 0
-22 -64 0
-19 -95 0
-20 -96 0
-21 -97 0
-22 -98 0
-19 -103 0
-20 -104 0
-21 -105 0
-22 -106 0
-24 -46 0
-25 -47 0
-26 -48 0
-23 -65 0
-25 -66 0
-26 -67 0
-23 -83 0
-24 -84 0
-25 -85 0
-26 -86 0
-23 -103 0
-24 -104 0
-25 -105 0
-26 -106 0
-27 -68 0
-29 -69 0
-30 -70 0
-27 -83 0
-28 -84 0
-29 -85 0
-30 -86 0
-27 -95 0
-28 -96 0
-29 -97 0
-30 -98 0
-27 -103 0
-28 -104 0
-29 -105 0
-30 -106 0
-31 -49 0
-32 -50 0
-33 -51 0
-34 -52 0
-31 -53 0
-32 -54 0
-33 -55 0
-34 -56 0
-31 -75 0
-32 -76 0
-33 -77 0
-34 -78 0
-31 -95 0
-32 -96 0
-33 -97 0
-34 -98 0
-31 -107 0
-33 -108 0
-34 -109 0
-35 -49 0
-36 -50 0
-37 -52 0
-35 -65 0
-37 -67 0
-35 -68 0
-37 -70 0
-35 -75 0
-36 -76 0
-37 -78 0
-35 -79 0
-36 -80 0
-37 -82 0
-35 -107 0
-37 -109 0
-39 -46 0
-40 -47 0
-41 -48 0
-38 -49 0
-39 -50 0
-40 -51 0
-41 -52 0
-38 -71 0
-39 -72 0
-40 -73 0
-41 -74 0
-38 -79 0
-39 -80 0
-40 -81 0
-41 -82 0
-38 -87 0
-39 -88 0
-40 -89 0
-41 -90 0
-42 -53 0
-43 -54 0
-44 -55 0
-45 -56 0
-42 -57 0
-43 -58 0
-44 -59 0
-45 -60 0
-42 -95 0
-43 -96 0
-44 -97 0
-45 -98 0
-46 -58 0
-47 -59 0
-48 -60 0
-46 -80 0
-47 -81 0
-48 -82 0
-46 -96 0
-47 -97 0
-48 -98 0
-46 -100 0
-47 -101 0
-48 -102 0
-47 -108 0
-48 -109 0
-49 -71 0
-50 -72 0
-51 -73 0
-52 -74 0
-49 -79 0
-50 -80 0
-51 -81 0
-52 -82 0
-49 -103 0
-50 -104 0
-51 -105 0
-52 -106 0
-53 -68 0
-55 -69 0
-56 -70 0
-53 -71 0
-54 -72 0
-55 -73 0
-56 -74 0
-53 -75 0
-54 -76 0
-55 -77 0
-56 -78 0
-53 -99 0
-54 -100 0
-55 -101 0
-56 -102 0
-57 -68 0
-59 -69 0
-60 -70 0
-57 -95 0
-58 -96 0
-59 -97 0
-60 -98 0
-61 -75 0
-62 -76 0
-63 -77 0
-64 -78 0
-65 -68 0
-66 -69 0
-67 -70 0
-65 -99 0
-66 -101 0
-67 -102 0
-65 -107 0
-66 -108 0
-67 -109 0
-68 -71 0
-69 -73 0
-70 -74 0
-68 -91 0
-69 -93 0
-70 -94 0
-68 -103 0
-69 -105 0
-70 -106 0
-71 -83 0
-72 -84 0
-73 -85 0
-74 -86 0
-71 -91 0
-72 -92 0
-73 -93 0
-74 -94 0
-75 -79 0
-76 -80 0
-77 -81 0
-78 -82 0
-79 -99 0
-80 -100 0
-81 -101 0
-82 -102 0
-91 -99 0
-92 -100 0
-93 -101 0
-94 -102 0
